NAME : tsp_259_sol.txt
COMMENT : OR-Tools Guided Local Search
TYPE : TOUR
DIMENSION : 50
COST : 5629
STATUS : ROUTING_SUCCESS
GAP : 0.00% (Reference Solution)
TOUR_SECTION
1
25
4
14
47
40
7
19
22
29
45
24
12
49
20
21
39
23
46
30
26
28
35
17
18
6
15
48
13
10
3
11
16
33
34
32
37
2
5
31
38
50
27
41
43
8
44
9
36
42
-1
